experiment/data/lkh-res/Vrp-Set-Golden-n400/Vrp-Set-Golden-n400-lkh/0.lkh1.vrp
NAME : 0
COMMENT : CVRP Instance
TYPE : CVRP
DIMENSION : 400
EDGE_WEIGHT_TYPE : EUC_2D
CAPACITY : 1000
NODE_COORD_SECTION
1	0	-1899
2	-99	-1799
3	100	-1799
4	-199	-1699
5	0	-1699
6	200	-1699
7	-299	-1599
8	-99	-1599
9	100	-1599
10	300	-1599
11	-399	-1499
12	-199	-1499
13	0	-1499
14	200	-1499
15	400	-1499
16	-499	-1399
17	-299	-1399
18	-99	-1399
19	100	-1399
20	300	-1399
21	500	-1399
22	-599	-1299
23	-399	-1299
24	-199	-1299
25	0	-1299
26	200	-1299
27	400	-1299
28	600	-1299
29	-699	-1199
30	-499	-1199
31	-299	-1199
32	-99	-1199
33	100	-1199
34	300	-1199
35	500	-1199
36	700	-1199
37	-799	-1099
38	-599	-1099
39	-399	-1099
40	-199	-1099
41	0	-1099
42	200	-1099
43	400	-1099
44	600	-1099
45	800	-1099
46	-899	-999
47	-699	-999
48	-499	-999
49	-299	-999
50	-99	-999
51	100	-999
52	300	-999
53	500	-999
54	700	-999
55	900	-999
56	-999	-899
57	-799	-899
58	-599	-899
59	-399	-899
60	-199	-899
61	0	-899
62	200	-899
63	400	-899
64	600	-899
65	800	-899
66	1000	-899
67	-1099	-799
68	-899	-799
69	-699	-799
70	-499	-799
71	-299	-799
72	-99	-799
73	100	-799
74	300	-799
75	500	-799
76	700	-799
77	900	-799
78	1100	-799
79	-1199	-699
80	-999	-699
81	-799	-699
82	-599	-699
83	-399	-699
84	-199	-699
85	0	-699
86	200	-699
87	400	-699
88	600	-699
89	800	-699
90	1000	-699
91	1200	-699
92	-1299	-599
93	-1099	-599
94	-899	-599
95	-699	-599
96	-499	-599
97	-299	-599
98	-99	-599
99	100	-599
100	300	-599
101	500	-599
102	700	-599
103	900	-599
104	1100	-599
105	1300	-599
106	-1399	-499
107	-1199	-499
108	-999	-499
109	-799	-499
110	-599	-499
111	-399	-499
112	-199	-499
113	0	-499
114	200	-499
115	400	-499
116	600	-499
117	800	-499
118	1000	-499
119	1200	-499
120	1400	-499
121	-1499	-399
122	-1299	-399
123	-1099	-399
124	-899	-399
125	-699	-399
126	-499	-399
127	-299	-399
128	-99	-399
129	100	-399
130	300	-399
131	500	-399
132	700	-399
133	900	-399
134	1100	-399
135	1300	-399
136	1500	-399
137	-1599	-299
138	-1399	-299
139	-1199	-299
140	-999	-299
141	-799	-299
142	-599	-299
143	-399	-299
144	-199	-299
145	0	-299
146	200	-299
147	400	-299
148	600	-299
149	800	-299
150	1000	-299
151	1200	-299
152	1400	-299
153	1600	-299
154	-1699	-199
155	-1499	-199
156	-1299	-199
157	-1099	-199
158	-899	-199
159	-699	-199
160	-499	-199
161	-299	-199
162	-99	-199
163	100	-199
164	300	-199
165	500	-199
166	700	-199
167	900	-199
168	1100	-199
169	1300	-199
170	1500	-199
171	1700	-199
172	-1799	-99
173	-1599	-99
174	-1399	-99
175	-1199	-99
176	-999	-99
177	-799	-99
178	-599	-99
179	-399	-99
180	-199	-99
181	0	-99
182	200	-99
183	400	-99
184	600	-99
185	800	-99
186	1000	-99
187	1200	-99
188	1400	-99
189	1600	-99
190	1800	-99
191	-1899	0
192	-1699	0
193	-1499	0
194	-1299	0
195	-1099	0
196	-899	0
197	-699	0
198	-499	0
199	-299	0
200	-99	0
201	100	0
202	300	0
203	500	0
204	700	0
205	900	0
206	1100	0
207	1300	0
208	1500	0
209	1700	0
210	1900	0
211	-1799	100
212	-1599	100
213	-1399	100
214	-1199	100
215	-999	100
216	-799	100
217	-599	100
218	-399	100
219	-199	100
220	0	100
221	200	100
222	400	100
223	600	100
224	800	100
225	1000	100
226	1200	100
227	1400	100
228	1600	100
229	1800	100
230	-1699	200
231	-1499	200
232	-1299	200
233	-1099	200
234	-899	200
235	-699	200
236	-499	200
237	-299	200
238	-99	200
239	100	200
240	300	200
241	500	200
242	700	200
243	900	200
244	1100	200
245	1300	200
246	1500	200
247	1700	200
248	-1599	300
249	-1399	300
250	-1199	300
251	-999	300
252	-799	300
253	-599	300
254	-399	300
255	-199	300
256	0	300
257	200	300
258	400	300
259	600	300
260	800	300
261	1000	300
262	1200	300
263	1400	300
264	1600	300
265	-1499	400
266	-1299	400
267	-1099	400
268	-899	400
269	-699	400
270	-499	400
271	-299	400
272	-99	400
273	100	400
274	300	400
275	500	400
276	700	400
277	900	400
278	1100	400
279	1300	400
280	1500	400
281	-1399	500
282	-1199	500
283	-999	500
284	-799	500
285	-599	500
286	-399	500
287	-199	500
288	0	500
289	200	500
290	400	500
291	600	500
292	800	500
293	1000	500
294	1200	500
295	1400	500
296	-1299	600
297	-1099	600
298	-899	600
299	-699	600
300	-499	600
301	-299	600
302	-99	600
303	100	600
304	300	600
305	500	600
306	700	600
307	900	600
308	1100	600
309	1300	600
310	-1199	700
311	-999	700
312	-799	700
313	-599	700
314	-399	700
315	-199	700
316	0	700
317	200	700
318	400	700
319	600	700
320	800	700
321	1000	700
322	1200	700
323	-1099	800
324	-899	800
325	-699	800
326	-499	800
327	-299	800
328	-99	800
329	100	800
330	300	800
331	500	800
332	700	800
333	900	800
334	1100	800
335	-999	900
336	-799	900
337	-599	900
338	-399	900
339	-199	900
340	0	900
341	200	900
342	400	900
343	600	900
344	800	900
345	1000	900
346	-899	1000
347	-699	1000
348	-499	1000
349	-299	1000
350	-99	1000
351	100	1000
352	300	1000
353	500	1000
354	700	1000
355	900	1000
356	-799	1100
357	-599	1100
358	-399	1100
359	-199	1100
360	0	1100
361	200	1100
362	400	1100
363	600	1100
364	800	1100
365	-699	1200
366	-499	1200
367	-299	1200
368	-99	1200
369	100	1200
370	300	1200
371	500	1200
372	700	1200
373	-599	1300
374	-399	1300
375	-199	1300
376	0	1300
377	200	1300
378	400	1300
379	600	1300
380	-499	1400
381	-299	1400
382	-99	1400
383	100	1400
384	300	1400
385	500	1400
386	-399	1500
387	-199	1500
388	0	1500
389	200	1500
390	400	1500
391	-299	1600
392	-99	1600
393	100	1600
394	300	1600
395	-199	1700
396	0	1700
397	200	1700
398	-99	1800
399	100	1800
400	0	1900
DEMAND_SECTION
1	0
2	300
3	300
4	180
5	300
6	180
7	128
8	180
9	180
10	128
11	100
12	128
13	180
14	128
15	100
16	81
17	100
18	128
19	128
20	100
21	81
22	69
23	81
24	100
25	128
26	100
27	81
28	69
29	60
30	69
31	81
32	100
33	100
34	81
35	69
36	60
37	52
38	60
39	69
40	81
41	100
42	81
43	69
44	60
45	52
46	47
47	52
48	60
49	69
50	81
51	81
52	69
53	60
54	52
55	47
56	42
57	47
58	52
59	60
60	69
61	81
62	69
63	60
64	52
65	47
66	42
67	39
68	42
69	47
70	52
71	60
72	69
73	69
74	60
75	52
76	47
77	42
78	39
79	36
80	39
81	42
82	47
83	52
84	60
85	69
86	60
87	52
88	47
89	42
90	39
91	36
92	33
93	36
94	39
95	42
96	47
97	52
98	60
99	60
100	52
101	47
102	42
103	39
104	36
105	33
106	31
107	33
108	36
109	39
110	42
111	47
112	52
113	60
114	52
115	47
116	42
117	39
118	36
119	33
120	31
121	29
122	31
123	33
124	36
125	39
126	42
127	47
128	52
129	52
130	47
131	42
132	39
133	36
134	33
135	31
136	29
137	27
138	29
139	31
140	33
141	36
142	39
143	42
144	47
145	52
146	47
147	42
148	39
149	36
150	33
151	31
152	29
153	27
154	25
155	27
156	29
157	31
158	33
159	36
160	39
161	42
162	47
163	47
164	42
165	39
166	36
167	33
168	31
169	29
170	27
171	25
172	24
173	25
174	27
175	29
176	31
177	33
178	36
179	39
180	42
181	47
182	42
183	39
184	36
185	33
186	31
187	29
188	27
189	25
190	24
191	23
192	24
193	25
194	27
195	29
196	31
197	33
198	36
199	39
200	42
201	42
202	39
203	36
204	33
205	31
206	29
207	27
208	25
209	24
210	23
211	23
212	24
213	25
214	27
215	29
216	31
217	33
218	36
219	39
220	42
221	39
222	36
223	33
224	31
225	29
226	27
227	25
228	24
229	23
230	23
231	24
232	25
233	27
234	29
235	31
236	33
237	36
238	39
239	39
240	36
241	33
242	31
243	29
244	27
245	25
246	24
247	23
248	23
249	24
250	25
251	27
252	29
253	31
254	33
255	36
256	39
257	36
258	33
259	31
260	29
261	27
262	25
263	24
264	23
265	23
266	24
267	25
268	27
269	29
270	31
271	33
272	36
273	36
274	33
275	31
276	29
277	27
278	25
279	24
280	23
281	23
282	24
283	25
284	27
285	29
286	31
287	33
288	36
289	33
290	31
291	29
292	27
293	25
294	24
295	23
296	23
297	24
298	25
299	27
300	29
301	31
302	33
303	33
304	31
305	29
306	27
307	25
308	24
309	23
310	23
311	24
312	25
313	27
314	29
315	31
316	33
317	31
318	29
319	27
320	25
321	24
322	23
323	23
324	24
325	25
326	27
327	29
328	31
329	31
330	29
331	27
332	25
333	24
334	23
335	23
336	24
337	25
338	27
339	29
340	31
341	29
342	27
343	25
344	24
345	23
346	23
347	24
348	25
349	27
350	29
351	29
352	27
353	25
354	24
355	23
356	23
357	24
358	25
359	27
360	29
361	27
362	25
363	24
364	23
365	23
366	24
367	25
368	27
369	27
370	25
371	24
372	23
373	23
374	24
375	25
376	27
377	25
378	24
379	23
380	23
381	24
382	25
383	25
384	24
385	23
386	23
387	24
388	25
389	24
390	23
391	23
392	24
393	24
394	23
395	23
396	24
397	23
398	23
399	23
400	23
DEPOT_SECTION
1
-1
EOF
