experiment/data/lkh-res/Vrp-Set-Golden-n400/Vrp-Set-Golden-n400-lkh/0.lkh1.log
PARAMETER_FILE = baseline_results/cvrp_lkh/Vrp-Set-Golden-n400/Vrp-Set-Golden-n400-lkh/0.lkh1.par
Reading PROBLEM_FILE: "baseline_results/cvrp_lkh/Vrp-Set-Golden-n400/Vrp-Set-Golden-n400-lkh/0.lkh1.vrp" ... done
ASCENT_CANDIDATES = 50
BACKBONE_TRIALS = 0
BACKTRACKING = NO
# BWTSP =
# CANDIDATE_FILE =
CANDIDATE_SET_TYPE = ALPHA
# DISTANCE =
DEPOT = 1
# EDGE_FILE =
EXCESS = 0.0025
EXTERNAL_SALESMEN = 0
EXTRA_CANDIDATES = 0 
EXTRA_CANDIDATE_SET_TYPE = QUADRANT
GAIN23 = NO
GAIN_CRITERION = YES
INITIAL_PERIOD = 200
INITIAL_STEP_SIZE = 1
INITIAL_TOUR_ALGORITHM = WALK
# INITIAL_TOUR_FILE = 
INITIAL_TOUR_FRACTION = 1.000
# INPUT_TOUR_FILE = 
KICK_TYPE = 4
KICKS = 1
# MAX_BREADTH =
MAKESPAN = NO
MAX_CANDIDATES = 5 
MAX_SWAPS = 0
MAX_TRIALS = 10000
# MERGE_TOUR_FILE =
MOVE_TYPE = 5 SPECIAL
MTSP_MIN_SIZE = 1
MTSP_MAX_SIZE = 399
# MTSP_SOLUTION_FILE = 
# NONSEQUENTIAL_MOVE_TYPE = 5
# OPTIMUM =
OUTPUT_TOUR_FILE = baseline_results/cvrp_lkh/Vrp-Set-Golden-n400/Vrp-Set-Golden-n400-lkh/0.lkh1.tour
PATCHING_A = 1 
PATCHING_C = 0 
# PI_FILE = 
POPMUSIC_INITIAL_TOUR = NO
POPMUSIC_MAX_NEIGHBORS = 5
POPMUSIC_SAMPLE_SIZE = 10
POPMUSIC_SOLUTIONS = 50
POPMUSIC_TRIALS = 1
POPULATION_SIZE = 10
PRECISION = 100
PROBLEM_FILE = baseline_results/cvrp_lkh/Vrp-Set-Golden-n400/Vrp-Set-Golden-n400-lkh/0.lkh1.vrp
RECOMBINATION = IPT
RESTRICTED_SEARCH = YES
RUNS = 1
SALESMEN = 17
SCALE = 1
SEED = 1234
# SINTEF_SOLUTION_FILE = 
STOP_AT_OPTIMUM = YES
SUBGRADIENT = YES
# SUBPROBLEM_SIZE =
# SUBPROBLEM_TOUR_FILE = 
SUBSEQUENT_MOVE_TYPE = 5 SPECIAL
SUBSEQUENT_PATCHING = YES
# TIME_LIMIT =
# TOTAL_TIME_LIMIT =
# TOUR_FILE = 
TRACE_LEVEL = 1
VEHICLES = 17

Lower bound = 66967.8, Ascent time = 0.15 sec.
Cand.min = 2, Cand.avg = 5.0, Cand.max = 5
Preprocessing time = 0.15 sec.
* 1: Cost = 0_119913, Time = 0.28 sec. 
Writing OUTPUT_TOUR_FILE: "baseline_results/cvrp_lkh/Vrp-Set-Golden-n400/Vrp-Set-Golden-n400-lkh/0.lkh1.tour" ... done
* 2: Cost = 0_119890, Time = 0.33 sec. 
Writing OUTPUT_TOUR_FILE: "baseline_results/cvrp_lkh/Vrp-Set-Golden-n400/Vrp-Set-Golden-n400-lkh/0.lkh1.tour" ... done
* 5: Cost = 0_117974, Time = 0.41 sec. 
Writing OUTPUT_TOUR_FILE: "baseline_results/cvrp_lkh/Vrp-Set-Golden-n400/Vrp-Set-Golden-n400-lkh/0.lkh1.tour" ... done
* 12: Cost = 0_117333, Time = 0.79 sec. 
Writing OUTPUT_TOUR_FILE: "baseline_results/cvrp_lkh/Vrp-Set-Golden-n400/Vrp-Set-Golden-n400-lkh/0.lkh1.tour" ... done
* 14: Cost = 0_115916, Time = 0.92 sec. 
Writing OUTPUT_TOUR_FILE: "baseline_results/cvrp_lkh/Vrp-Set-Golden-n400/Vrp-Set-Golden-n400-lkh/0.lkh1.tour" ... done
* 18: Cost = 0_114139, Time = 1.11 sec. 
Writing OUTPUT_TOUR_FILE: "baseline_results/cvrp_lkh/Vrp-Set-Golden-n400/Vrp-Set-Golden-n400-lkh/0.lkh1.tour" ... done
* 24: Cost = 0_113448, Time = 1.37 sec. 
Writing OUTPUT_TOUR_FILE: "baseline_results/cvrp_lkh/Vrp-Set-Golden-n400/Vrp-Set-Golden-n400-lkh/0.lkh1.tour" ... done
* 27: Cost = 0_112372, Time = 1.55 sec. 
Writing OUTPUT_TOUR_FILE: "baseline_results/cvrp_lkh/Vrp-Set-Golden-n400/Vrp-Set-Golden-n400-lkh/0.lkh1.tour" ... done
* 29: Cost = 0_112327, Time = 1.62 sec. 
Writing OUTPUT_TOUR_FILE: "baseline_results/cvrp_lkh/Vrp-Set-Golden-n400/Vrp-Set-Golden-n400-lkh/0.lkh1.tour" ... done
* 30: Cost = 0_111714, Time = 1.67 sec. 
Writing OUTPUT_TOUR_FILE: "baseline_results/cvrp_lkh/Vrp-Set-Golden-n400/Vrp-Set-Golden-n400-lkh/0.lkh1.tour" ... done
* 31: Cost = 0_110810, Time = 1.70 sec. 
Writing OUTPUT_TOUR_FILE: "baseline_results/cvrp_lkh/Vrp-Set-Golden-n400/Vrp-Set-Golden-n400-lkh/0.lkh1.tour" ... done
* 41: Cost = 0_109057, Time = 1.99 sec. 
Writing OUTPUT_TOUR_FILE: "baseline_results/cvrp_lkh/Vrp-Set-Golden-n400/Vrp-Set-Golden-n400-lkh/0.lkh1.tour" ... done
* 57: Cost = 0_109042, Time = 2.89 sec. 
Writing OUTPUT_TOUR_FILE: "baseline_results/cvrp_lkh/Vrp-Set-Golden-n400/Vrp-Set-Golden-n400-lkh/0.lkh1.tour" ... done
* 60: Cost = 0_108489, Time = 3.13 sec. 
Writing OUTPUT_TOUR_FILE: "baseline_results/cvrp_lkh/Vrp-Set-Golden-n400/Vrp-Set-Golden-n400-lkh/0.lkh1.tour" ... done
* 64: Cost = 0_108432, Time = 3.35 sec. 
Writing OUTPUT_TOUR_FILE: "baseline_results/cvrp_lkh/Vrp-Set-Golden-n400/Vrp-Set-Golden-n400-lkh/0.lkh1.tour" ... done
* 65: Cost = 0_108110, Time = 3.37 sec. 
Writing OUTPUT_TOUR_FILE: "baseline_results/cvrp_lkh/Vrp-Set-Golden-n400/Vrp-Set-Golden-n400-lkh/0.lkh1.tour" ... done
* 69: Cost = 0_108104, Time = 3.62 sec. 
Writing OUTPUT_TOUR_FILE: "baseline_results/cvrp_lkh/Vrp-Set-Golden-n400/Vrp-Set-Golden-n400-lkh/0.lkh1.tour" ... done
* 71: Cost = 0_107856, Time = 3.63 sec. 
Writing OUTPUT_TOUR_FILE: "baseline_results/cvrp_lkh/Vrp-Set-Golden-n400/Vrp-Set-Golden-n400-lkh/0.lkh1.tour" ... done
* 74: Cost = 0_107738, Time = 3.73 sec. 
Writing OUTPUT_TOUR_FILE: "baseline_results/cvrp_lkh/Vrp-Set-Golden-n400/Vrp-Set-Golden-n400-lkh/0.lkh1.tour" ... done
* 78: Cost = 0_107682, Time = 3.84 sec. 
Writing OUTPUT_TOUR_FILE: "baseline_results/cvrp_lkh/Vrp-Set-Golden-n400/Vrp-Set-Golden-n400-lkh/0.lkh1.tour" ... done
* 82: Cost = 0_107021, Time = 4.02 sec. 
Writing OUTPUT_TOUR_FILE: "baseline_results/cvrp_lkh/Vrp-Set-Golden-n400/Vrp-Set-Golden-n400-lkh/0.lkh1.tour" ... done
* 86: Cost = 0_106195, Time = 4.24 sec. 
Writing OUTPUT_TOUR_FILE: "baseline_results/cvrp_lkh/Vrp-Set-Golden-n400/Vrp-Set-Golden-n400-lkh/0.lkh1.tour" ... done
* 89: Cost = 0_105058, Time = 4.71 sec. 
Writing OUTPUT_TOUR_FILE: "baseline_results/cvrp_lkh/Vrp-Set-Golden-n400/Vrp-Set-Golden-n400-lkh/0.lkh1.tour" ... done
* 98: Cost = 0_105033, Time = 5.04 sec. 
Writing OUTPUT_TOUR_FILE: "baseline_results/cvrp_lkh/Vrp-Set-Golden-n400/Vrp-Set-Golden-n400-lkh/0.lkh1.tour" ... done
* 110: Cost = 0_104622, Time = 5.35 sec. 
Writing OUTPUT_TOUR_FILE: "baseline_results/cvrp_lkh/Vrp-Set-Golden-n400/Vrp-Set-Golden-n400-lkh/0.lkh1.tour" ... done
* 127: Cost = 0_104619, Time = 6.01 sec. 
Writing OUTPUT_TOUR_FILE: "baseline_results/cvrp_lkh/Vrp-Set-Golden-n400/Vrp-Set-Golden-n400-lkh/0.lkh1.tour" ... done
* 143: Cost = 0_104593, Time = 6.39 sec. 
Writing OUTPUT_TOUR_FILE: "baseline_results/cvrp_lkh/Vrp-Set-Golden-n400/Vrp-Set-Golden-n400-lkh/0.lkh1.tour" ... done
* 151: Cost = 0_104418, Time = 6.63 sec. 
Writing OUTPUT_TOUR_FILE: "baseline_results/cvrp_lkh/Vrp-Set-Golden-n400/Vrp-Set-Golden-n400-lkh/0.lkh1.tour" ... done
* 155: Cost = 0_104133, Time = 6.79 sec. 
Writing OUTPUT_TOUR_FILE: "baseline_results/cvrp_lkh/Vrp-Set-Golden-n400/Vrp-Set-Golden-n400-lkh/0.lkh1.tour" ... done
* 158: Cost = 0_104062, Time = 6.95 sec. 
Writing OUTPUT_TOUR_FILE: "baseline_results/cvrp_lkh/Vrp-Set-Golden-n400/Vrp-Set-Golden-n400-lkh/0.lkh1.tour" ... done
* 175: Cost = 0_103821, Time = 7.53 sec. 
Writing OUTPUT_TOUR_FILE: "baseline_results/cvrp_lkh/Vrp-Set-Golden-n400/Vrp-Set-Golden-n400-lkh/0.lkh1.tour" ... done
* 177: Cost = 0_103725, Time = 7.71 sec. 
Writing OUTPUT_TOUR_FILE: "baseline_results/cvrp_lkh/Vrp-Set-Golden-n400/Vrp-Set-Golden-n400-lkh/0.lkh1.tour" ... done
* 187: Cost = 0_103434, Time = 8.18 sec. 
Writing OUTPUT_TOUR_FILE: "baseline_results/cvrp_lkh/Vrp-Set-Golden-n400/Vrp-Set-Golden-n400-lkh/0.lkh1.tour" ... done
* 188: Cost = 0_103366, Time = 8.19 sec. 
Writing OUTPUT_TOUR_FILE: "baseline_results/cvrp_lkh/Vrp-Set-Golden-n400/Vrp-Set-Golden-n400-lkh/0.lkh1.tour" ... done
* 193: Cost = 0_103357, Time = 8.25 sec. 
Writing OUTPUT_TOUR_FILE: "baseline_results/cvrp_lkh/Vrp-Set-Golden-n400/Vrp-Set-Golden-n400-lkh/0.lkh1.tour" ... done
* 198: Cost = 0_103127, Time = 8.34 sec. 
Writing OUTPUT_TOUR_FILE: "baseline_results/cvrp_lkh/Vrp-Set-Golden-n400/Vrp-Set-Golden-n400-lkh/0.lkh1.tour" ... done
* 222: Cost = 0_102853, Time = 9.32 sec. 
Writing OUTPUT_TOUR_FILE: "baseline_results/cvrp_lkh/Vrp-Set-Golden-n400/Vrp-Set-Golden-n400-lkh/0.lkh1.tour" ... done
* 229: Cost = 0_102838, Time = 9.72 sec. 
Writing OUTPUT_TOUR_FILE: "baseline_results/cvrp_lkh/Vrp-Set-Golden-n400/Vrp-Set-Golden-n400-lkh/0.lkh1.tour" ... done
* 231: Cost = 0_102607, Time = 10.00 sec. 
Writing OUTPUT_TOUR_FILE: "baseline_results/cvrp_lkh/Vrp-Set-Golden-n400/Vrp-Set-Golden-n400-lkh/0.lkh1.tour" ... done
* 238: Cost = 0_102572, Time = 10.07 sec. 
Writing OUTPUT_TOUR_FILE: "baseline_results/cvrp_lkh/Vrp-Set-Golden-n400/Vrp-Set-Golden-n400-lkh/0.lkh1.tour" ... done
* 246: Cost = 0_102526, Time = 10.32 sec. 
Writing OUTPUT_TOUR_FILE: "baseline_results/cvrp_lkh/Vrp-Set-Golden-n400/Vrp-Set-Golden-n400-lkh/0.lkh1.tour" ... done
* 266: Cost = 0_102491, Time = 11.16 sec. 
Writing OUTPUT_TOUR_FILE: "baseline_results/cvrp_lkh/Vrp-Set-Golden-n400/Vrp-Set-Golden-n400-lkh/0.lkh1.tour" ... done
* 289: Cost = 0_102399, Time = 11.78 sec. 
Writing OUTPUT_TOUR_FILE: "baseline_results/cvrp_lkh/Vrp-Set-Golden-n400/Vrp-Set-Golden-n400-lkh/0.lkh1.tour" ... done
* 305: Cost = 0_102281, Time = 12.52 sec. 
Writing OUTPUT_TOUR_FILE: "baseline_results/cvrp_lkh/Vrp-Set-Golden-n400/Vrp-Set-Golden-n400-lkh/0.lkh1.tour" ... done
* 319: Cost = 0_102106, Time = 13.12 sec. 
Writing OUTPUT_TOUR_FILE: "baseline_results/cvrp_lkh/Vrp-Set-Golden-n400/Vrp-Set-Golden-n400-lkh/0.lkh1.tour" ... done
* 323: Cost = 0_102045, Time = 13.28 sec. 
Writing OUTPUT_TOUR_FILE: "baseline_results/cvrp_lkh/Vrp-Set-Golden-n400/Vrp-Set-Golden-n400-lkh/0.lkh1.tour" ... done
* 328: Cost = 0_102040, Time = 13.40 sec. 
Writing OUTPUT_TOUR_FILE: "baseline_results/cvrp_lkh/Vrp-Set-Golden-n400/Vrp-Set-Golden-n400-lkh/0.lkh1.tour" ... done
* 335: Cost = 0_102005, Time = 13.51 sec. 
Writing OUTPUT_TOUR_FILE: "baseline_results/cvrp_lkh/Vrp-Set-Golden-n400/Vrp-Set-Golden-n400-lkh/0.lkh1.tour" ... done
* 370: Cost = 0_101775, Time = 14.61 sec. 
Writing OUTPUT_TOUR_FILE: "baseline_results/cvrp_lkh/Vrp-Set-Golden-n400/Vrp-Set-Golden-n400-lkh/0.lkh1.tour" ... done
* 371: Cost = 0_101680, Time = 14.64 sec. 
Writing OUTPUT_TOUR_FILE: "baseline_results/cvrp_lkh/Vrp-Set-Golden-n400/Vrp-Set-Golden-n400-lkh/0.lkh1.tour" ... done
* 387: Cost = 0_101677, Time = 15.22 sec. 
Writing OUTPUT_TOUR_FILE: "baseline_results/cvrp_lkh/Vrp-Set-Golden-n400/Vrp-Set-Golden-n400-lkh/0.lkh1.tour" ... done
* 403: Cost = 0_101627, Time = 15.54 sec. 
Writing OUTPUT_TOUR_FILE: "baseline_results/cvrp_lkh/Vrp-Set-Golden-n400/Vrp-Set-Golden-n400-lkh/0.lkh1.tour" ... done
* 428: Cost = 0_101516, Time = 16.54 sec. 
Writing OUTPUT_TOUR_FILE: "baseline_results/cvrp_lkh/Vrp-Set-Golden-n400/Vrp-Set-Golden-n400-lkh/0.lkh1.tour" ... done
* 434: Cost = 0_101228, Time = 16.65 sec. 
Writing OUTPUT_TOUR_FILE: "baseline_results/cvrp_lkh/Vrp-Set-Golden-n400/Vrp-Set-Golden-n400-lkh/0.lkh1.tour" ... done
* 446: Cost = 0_101185, Time = 16.86 sec. 
Writing OUTPUT_TOUR_FILE: "baseline_results/cvrp_lkh/Vrp-Set-Golden-n400/Vrp-Set-Golden-n400-lkh/0.lkh1.tour" ... done
* 489: Cost = 0_100951, Time = 18.43 sec. 
Writing OUTPUT_TOUR_FILE: "baseline_results/cvrp_lkh/Vrp-Set-Golden-n400/Vrp-Set-Golden-n400-lkh/0.lkh1.tour" ... done
* 513: Cost = 0_100879, Time = 19.46 sec. 
Writing OUTPUT_TOUR_FILE: "baseline_results/cvrp_lkh/Vrp-Set-Golden-n400/Vrp-Set-Golden-n400-lkh/0.lkh1.tour" ... done
* 514: Cost = 0_100835, Time = 19.48 sec. 
Writing OUTPUT_TOUR_FILE: "baseline_results/cvrp_lkh/Vrp-Set-Golden-n400/Vrp-Set-Golden-n400-lkh/0.lkh1.tour" ... done
* 564: Cost = 0_100809, Time = 21.60 sec. 
Writing OUTPUT_TOUR_FILE: "baseline_results/cvrp_lkh/Vrp-Set-Golden-n400/Vrp-Set-Golden-n400-lkh/0.lkh1.tour" ... done
* 648: Cost = 0_100767, Time = 24.17 sec. 
Writing OUTPUT_TOUR_FILE: "baseline_results/cvrp_lkh/Vrp-Set-Golden-n400/Vrp-Set-Golden-n400-lkh/0.lkh1.tour" ... done
* 707: Cost = 0_100629, Time = 25.67 sec. 
Writing OUTPUT_TOUR_FILE: "baseline_results/cvrp_lkh/Vrp-Set-Golden-n400/Vrp-Set-Golden-n400-lkh/0.lkh1.tour" ... done
* 711: Cost = 0_100556, Time = 25.75 sec. 
Writing OUTPUT_TOUR_FILE: "baseline_results/cvrp_lkh/Vrp-Set-Golden-n400/Vrp-Set-Golden-n400-lkh/0.lkh1.tour" ... done
* 719: Cost = 0_100447, Time = 26.22 sec. 
Writing OUTPUT_TOUR_FILE: "baseline_results/cvrp_lkh/Vrp-Set-Golden-n400/Vrp-Set-Golden-n400-lkh/0.lkh1.tour" ... done
* 726: Cost = 0_100439, Time = 26.42 sec. 
Writing OUTPUT_TOUR_FILE: "baseline_results/cvrp_lkh/Vrp-Set-Golden-n400/Vrp-Set-Golden-n400-lkh/0.lkh1.tour" ... done
* 737: Cost = 0_100384, Time = 26.77 sec. 
Writing OUTPUT_TOUR_FILE: "baseline_results/cvrp_lkh/Vrp-Set-Golden-n400/Vrp-Set-Golden-n400-lkh/0.lkh1.tour" ... done
* 780: Cost = 0_100277, Time = 28.44 sec. 
Writing OUTPUT_TOUR_FILE: "baseline_results/cvrp_lkh/Vrp-Set-Golden-n400/Vrp-Set-Golden-n400-lkh/0.lkh1.tour" ... done
* 787: Cost = 0_100230, Time = 28.52 sec. 
Writing OUTPUT_TOUR_FILE: "baseline_results/cvrp_lkh/Vrp-Set-Golden-n400/Vrp-Set-Golden-n400-lkh/0.lkh1.tour" ... done
* 790: Cost = 0_100138, Time = 28.63 sec. 
Writing OUTPUT_TOUR_FILE: "baseline_results/cvrp_lkh/Vrp-Set-Golden-n400/Vrp-Set-Golden-n400-lkh/0.lkh1.tour" ... done
* 811: Cost = 0_100117, Time = 29.17 sec. 
Writing OUTPUT_TOUR_FILE: "baseline_results/cvrp_lkh/Vrp-Set-Golden-n400/Vrp-Set-Golden-n400-lkh/0.lkh1.tour" ... done
* 827: Cost = 0_100037, Time = 29.49 sec. 
Writing OUTPUT_TOUR_FILE: "baseline_results/cvrp_lkh/Vrp-Set-Golden-n400/Vrp-Set-Golden-n400-lkh/0.lkh1.tour" ... done
* 850: Cost = 0_99850, Time = 30.73 sec. 
Writing OUTPUT_TOUR_FILE: "baseline_results/cvrp_lkh/Vrp-Set-Golden-n400/Vrp-Set-Golden-n400-lkh/0.lkh1.tour" ... done
* 868: Cost = 0_99760, Time = 31.31 sec. 
Writing OUTPUT_TOUR_FILE: "baseline_results/cvrp_lkh/Vrp-Set-Golden-n400/Vrp-Set-Golden-n400-lkh/0.lkh1.tour" ... done
* 892: Cost = 0_99759, Time = 32.01 sec. 
Writing OUTPUT_TOUR_FILE: "baseline_results/cvrp_lkh/Vrp-Set-Golden-n400/Vrp-Set-Golden-n400-lkh/0.lkh1.tour" ... done
* 1096: Cost = 0_99749, Time = 39.21 sec. 
Writing OUTPUT_TOUR_FILE: "baseline_results/cvrp_lkh/Vrp-Set-Golden-n400/Vrp-Set-Golden-n400-lkh/0.lkh1.tour" ... done
* 1100: Cost = 0_99734, Time = 39.42 sec. 
Writing OUTPUT_TOUR_FILE: "baseline_results/cvrp_lkh/Vrp-Set-Golden-n400/Vrp-Set-Golden-n400-lkh/0.lkh1.tour" ... done
* 1165: Cost = 0_99602, Time = 41.50 sec. 
Writing OUTPUT_TOUR_FILE: "baseline_results/cvrp_lkh/Vrp-Set-Golden-n400/Vrp-Set-Golden-n400-lkh/0.lkh1.tour" ... done
* 1268: Cost = 0_99597, Time = 44.81 sec. 
Writing OUTPUT_TOUR_FILE: "baseline_results/cvrp_lkh/Vrp-Set-Golden-n400/Vrp-Set-Golden-n400-lkh/0.lkh1.tour" ... done
* 1309: Cost = 0_99583, Time = 46.08 sec. 
Writing OUTPUT_TOUR_FILE: "baseline_results/cvrp_lkh/Vrp-Set-Golden-n400/Vrp-Set-Golden-n400-lkh/0.lkh1.tour" ... done
* 1380: Cost = 0_99524, Time = 48.79 sec. 
Writing OUTPUT_TOUR_FILE: "baseline_results/cvrp_lkh/Vrp-Set-Golden-n400/Vrp-Set-Golden-n400-lkh/0.lkh1.tour" ... done
* 1418: Cost = 0_99446, Time = 50.07 sec. 
Writing OUTPUT_TOUR_FILE: "baseline_results/cvrp_lkh/Vrp-Set-Golden-n400/Vrp-Set-Golden-n400-lkh/0.lkh1.tour" ... done
* 1470: Cost = 0_99444, Time = 52.25 sec. 
Writing OUTPUT_TOUR_FILE: "baseline_results/cvrp_lkh/Vrp-Set-Golden-n400/Vrp-Set-Golden-n400-lkh/0.lkh1.tour" ... done
* 1478: Cost = 0_99439, Time = 52.49 sec. 
Writing OUTPUT_TOUR_FILE: "baseline_results/cvrp_lkh/Vrp-Set-Golden-n400/Vrp-Set-Golden-n400-lkh/0.lkh1.tour" ... done
* 1561: Cost = 0_99415, Time = 55.40 sec. 
Writing OUTPUT_TOUR_FILE: "baseline_results/cvrp_lkh/Vrp-Set-Golden-n400/Vrp-Set-Golden-n400-lkh/0.lkh1.tour" ... done
* 1661: Cost = 0_99384, Time = 58.90 sec. 
Writing OUTPUT_TOUR_FILE: "baseline_results/cvrp_lkh/Vrp-Set-Golden-n400/Vrp-Set-Golden-n400-lkh/0.lkh1.tour" ... done
* 1673: Cost = 0_99104, Time = 59.45 sec. 
Writing OUTPUT_TOUR_FILE: "baseline_results/cvrp_lkh/Vrp-Set-Golden-n400/Vrp-Set-Golden-n400-lkh/0.lkh1.tour" ... done
* 1701: Cost = 0_98983, Time = 60.32 sec. 
Writing OUTPUT_TOUR_FILE: "baseline_results/cvrp_lkh/Vrp-Set-Golden-n400/Vrp-Set-Golden-n400-lkh/0.lkh1.tour" ... done
* 1725: Cost = 0_98952, Time = 61.22 sec. 
Writing OUTPUT_TOUR_FILE: "baseline_results/cvrp_lkh/Vrp-Set-Golden-n400/Vrp-Set-Golden-n400-lkh/0.lkh1.tour" ... done
* 1777: Cost = 0_98873, Time = 63.05 sec. 
Writing OUTPUT_TOUR_FILE: "baseline_results/cvrp_lkh/Vrp-Set-Golden-n400/Vrp-Set-Golden-n400-lkh/0.lkh1.tour" ... done
* 1826: Cost = 0_98835, Time = 65.00 sec. 
Writing OUTPUT_TOUR_FILE: "baseline_results/cvrp_lkh/Vrp-Set-Golden-n400/Vrp-Set-Golden-n400-lkh/0.lkh1.tour" ... done
* 1914: Cost = 0_98717, Time = 67.59 sec. 
Writing OUTPUT_TOUR_FILE: "baseline_results/cvrp_lkh/Vrp-Set-Golden-n400/Vrp-Set-Golden-n400-lkh/0.lkh1.tour" ... done
* 1932: Cost = 0_98533, Time = 67.79 sec. 
Writing OUTPUT_TOUR_FILE: "baseline_results/cvrp_lkh/Vrp-Set-Golden-n400/Vrp-Set-Golden-n400-lkh/0.lkh1.tour" ... done
* 1936: Cost = 0_98497, Time = 67.86 sec. 
Writing OUTPUT_TOUR_FILE: "baseline_results/cvrp_lkh/Vrp-Set-Golden-n400/Vrp-Set-Golden-n400-lkh/0.lkh1.tour" ... done
* 1963: Cost = 0_98398, Time = 68.96 sec. 
Writing OUTPUT_TOUR_FILE: "baseline_results/cvrp_lkh/Vrp-Set-Golden-n400/Vrp-Set-Golden-n400-lkh/0.lkh1.tour" ... done
* 2026: Cost = 0_98384, Time = 71.89 sec. 
Writing OUTPUT_TOUR_FILE: "baseline_results/cvrp_lkh/Vrp-Set-Golden-n400/Vrp-Set-Golden-n400-lkh/0.lkh1.tour" ... done
* 2047: Cost = 0_98317, Time = 72.45 sec. 
Writing OUTPUT_TOUR_FILE: "baseline_results/cvrp_lkh/Vrp-Set-Golden-n400/Vrp-Set-Golden-n400-lkh/0.lkh1.tour" ... done
* 2080: Cost = 0_98304, Time = 73.07 sec. 
Writing OUTPUT_TOUR_FILE: "baseline_results/cvrp_lkh/Vrp-Set-Golden-n400/Vrp-Set-Golden-n400-lkh/0.lkh1.tour" ... done
* 2084: Cost = 0_98278, Time = 73.21 sec. 
Writing OUTPUT_TOUR_FILE: "baseline_results/cvrp_lkh/Vrp-Set-Golden-n400/Vrp-Set-Golden-n400-lkh/0.lkh1.tour" ... done
* 2159: Cost = 0_98198, Time = 76.33 sec. 
Writing OUTPUT_TOUR_FILE: "baseline_results/cvrp_lkh/Vrp-Set-Golden-n400/Vrp-Set-Golden-n400-lkh/0.lkh1.tour" ... done
* 2164: Cost = 0_98003, Time = 76.43 sec. 
Writing OUTPUT_TOUR_FILE: "baseline_results/cvrp_lkh/Vrp-Set-Golden-n400/Vrp-Set-Golden-n400-lkh/0.lkh1.tour" ... done
* 2176: Cost = 0_97981, Time = 76.72 sec. 
Writing OUTPUT_TOUR_FILE: "baseline_results/cvrp_lkh/Vrp-Set-Golden-n400/Vrp-Set-Golden-n400-lkh/0.lkh1.tour" ... done
* 2205: Cost = 0_97895, Time = 77.41 sec. 
Writing OUTPUT_TOUR_FILE: "baseline_results/cvrp_lkh/Vrp-Set-Golden-n400/Vrp-Set-Golden-n400-lkh/0.lkh1.tour" ... done
* 2235: Cost = 0_97842, Time = 78.47 sec. 
Writing OUTPUT_TOUR_FILE: "baseline_results/cvrp_lkh/Vrp-Set-Golden-n400/Vrp-Set-Golden-n400-lkh/0.lkh1.tour" ... done
* 2297: Cost = 0_97725, Time = 79.93 sec. 
Writing OUTPUT_TOUR_FILE: "baseline_results/cvrp_lkh/Vrp-Set-Golden-n400/Vrp-Set-Golden-n400-lkh/0.lkh1.tour" ... done
* 2333: Cost = 0_97558, Time = 80.88 sec. 
Writing OUTPUT_TOUR_FILE: "baseline_results/cvrp_lkh/Vrp-Set-Golden-n400/Vrp-Set-Golden-n400-lkh/0.lkh1.tour" ... done
* 2397: Cost = 0_97524, Time = 82.98 sec. 
Writing OUTPUT_TOUR_FILE: "baseline_results/cvrp_lkh/Vrp-Set-Golden-n400/Vrp-Set-Golden-n400-lkh/0.lkh1.tour" ... done
* 2642: Cost = 0_97467, Time = 90.78 sec. 
Writing OUTPUT_TOUR_FILE: "baseline_results/cvrp_lkh/Vrp-Set-Golden-n400/Vrp-Set-Golden-n400-lkh/0.lkh1.tour" ... done
* 2794: Cost = 0_97462, Time = 96.50 sec. 
Writing OUTPUT_TOUR_FILE: "baseline_results/cvrp_lkh/Vrp-Set-Golden-n400/Vrp-Set-Golden-n400-lkh/0.lkh1.tour" ... done
* 3080: Cost = 0_97447, Time = 107.01 sec. 
Writing OUTPUT_TOUR_FILE: "baseline_results/cvrp_lkh/Vrp-Set-Golden-n400/Vrp-Set-Golden-n400-lkh/0.lkh1.tour" ... done
* 3447: Cost = 0_97421, Time = 118.13 sec. 
Writing OUTPUT_TOUR_FILE: "baseline_results/cvrp_lkh/Vrp-Set-Golden-n400/Vrp-Set-Golden-n400-lkh/0.lkh1.tour" ... done
* 3596: Cost = 0_97200, Time = 123.65 sec. 
Writing OUTPUT_TOUR_FILE: "baseline_results/cvrp_lkh/Vrp-Set-Golden-n400/Vrp-Set-Golden-n400-lkh/0.lkh1.tour" ... done
* 3729: Cost = 0_97179, Time = 129.40 sec. 
Writing OUTPUT_TOUR_FILE: "baseline_results/cvrp_lkh/Vrp-Set-Golden-n400/Vrp-Set-Golden-n400-lkh/0.lkh1.tour" ... done
* 3743: Cost = 0_97168, Time = 129.61 sec. 
Writing OUTPUT_TOUR_FILE: "baseline_results/cvrp_lkh/Vrp-Set-Golden-n400/Vrp-Set-Golden-n400-lkh/0.lkh1.tour" ... done
* 3769: Cost = 0_97107, Time = 130.80 sec. 
Writing OUTPUT_TOUR_FILE: "baseline_results/cvrp_lkh/Vrp-Set-Golden-n400/Vrp-Set-Golden-n400-lkh/0.lkh1.tour" ... done
* 3859: Cost = 0_97026, Time = 132.94 sec. 
Writing OUTPUT_TOUR_FILE: "baseline_results/cvrp_lkh/Vrp-Set-Golden-n400/Vrp-Set-Golden-n400-lkh/0.lkh1.tour" ... done
* 3925: Cost = 0_96941, Time = 136.07 sec. 
Writing OUTPUT_TOUR_FILE: "baseline_results/cvrp_lkh/Vrp-Set-Golden-n400/Vrp-Set-Golden-n400-lkh/0.lkh1.tour" ... done
* 3976: Cost = 0_96935, Time = 137.06 sec. 
Writing OUTPUT_TOUR_FILE: "baseline_results/cvrp_lkh/Vrp-Set-Golden-n400/Vrp-Set-Golden-n400-lkh/0.lkh1.tour" ... done
* 3993: Cost = 0_96817, Time = 137.66 sec. 
Writing OUTPUT_TOUR_FILE: "baseline_results/cvrp_lkh/Vrp-Set-Golden-n400/Vrp-Set-Golden-n400-lkh/0.lkh1.tour" ... done
* 4466: Cost = 0_96816, Time = 153.39 sec. 
Writing OUTPUT_TOUR_FILE: "baseline_results/cvrp_lkh/Vrp-Set-Golden-n400/Vrp-Set-Golden-n400-lkh/0.lkh1.tour" ... done
* 4609: Cost = 0_96757, Time = 157.66 sec. 
Writing OUTPUT_TOUR_FILE: "baseline_results/cvrp_lkh/Vrp-Set-Golden-n400/Vrp-Set-Golden-n400-lkh/0.lkh1.tour" ... done
* 5121: Cost = 0_96754, Time = 174.31 sec. 
Writing OUTPUT_TOUR_FILE: "baseline_results/cvrp_lkh/Vrp-Set-Golden-n400/Vrp-Set-Golden-n400-lkh/0.lkh1.tour" ... done
* 5225: Cost = 0_96729, Time = 177.51 sec. 
Writing OUTPUT_TOUR_FILE: "baseline_results/cvrp_lkh/Vrp-Set-Golden-n400/Vrp-Set-Golden-n400-lkh/0.lkh1.tour" ... done
* 7033: Cost = 0_96654, Time = 233.58 sec. 
Writing OUTPUT_TOUR_FILE: "baseline_results/cvrp_lkh/Vrp-Set-Golden-n400/Vrp-Set-Golden-n400-lkh/0.lkh1.tour" ... done
Population:
  1: 0_96654
Run 1: Cost = 0_96654, Time = 337.20 sec. 

Successes/Runs = 0/1 
Cost.min = 96654, Cost.avg = 96654.00, Cost.max = 96654
Gap.min = 0.0000%, Gap.avg = 0.0000%, Gap.max = 0.0000%
Penalty.min = 0, Penalty.avg = 0.00, Penalty.max = 0
Trials.min = 10000, Trials.avg = 10000.0, Trials.max = 10000
Time.min = 337.20 sec., Time.avg = 337.20 sec., Time.max = 337.20 sec.
Time.total = 337.35 sec.
  Size.min = 6, Size.max = 39, Penalty = 0
  Cost.min = 1479, Cost.max = 10016, Cost.sum = 96654
Best CVRP solution:
  Cost = 0_96654

