experiment/data/lkh-res/Vrp-Set-Golden-n400/Vrp-Set-Golden-n400-lkh/0.lkh1.tour
NAME : 0.96654.tour
COMMENT : Length = 96654
COMMENT : Found by LKH-3 [Keld Helsgaun] Tue Apr  9 02:12:46 2024
TYPE : TOUR
DIMENSION : 416
TOUR_SECTION
1
2
4
7
16
23
17
12
410
70
110
125
141
158
176
195
175
194
213
231
249
265
248
230
212
193
173
192
211
191
172
154
137
121
138
155
174
156
139
157
108
94
81
401
3
6
10
27
14
9
404
146
182
221
257
317
330
341
351
360
350
359
368
375
367
374
366
357
347
356
365
373
380
386
381
387
382
376
369
361
352
362
353
342
331
318
290
411
32
50
84
97
127
161
179
198
217
235
252
268
251
234
216
197
178
160
143
111
83
40
407
13
18
25
33
41
51
42
26
20
412
19
52
62
73
86
100
114
130
147
131
101
87
74
63
43
34
409
164
202
241
275
319
343
354
363
371
378
370
377
384
389
383
388
392
391
395
398
400
399
396
393
397
394
390
385
379
372
364
355
345
344
332
320
306
259
223
403
22
30
38
58
48
59
71
60
49
39
31
24
8
406
96
126
142
159
177
196
215
233
214
232
250
266
281
296
310
323
335
346
336
324
311
297
282
267
283
298
284
269
285
270
253
236
180
113
414
162
200
219
237
271
301
315
328
316
329
340
339
349
358
348
337
325
312
299
313
326
338
327
314
300
286
254
218
199
144
112
416
89
103
118
150
168
206
226
245
262
244
261
278
293
307
333
334
321
308
322
309
294
279
295
280
263
246
227
208
188
207
187
169
151
134
104
90
415
15
21
35
53
64
76
102
117
133
149
132
88
75
5
402
47
57
69
82
95
109
124
140
123
93
107
122
106
92
79
67
80
68
56
46
37
29
11
413
61
85
99
129
163
201
239
256
273
288
302
287
272
255
238
220
181
145
128
98
72
405
44
54
65
77
119
135
152
170
189
209
228
264
247
229
210
190
171
153
136
120
105
91
78
66
55
45
36
28
408
115
165
183
203
222
240
258
274
289
303
304
305
291
276
292
277
260
242
224
243
225
205
186
167
185
204
184
166
148
116
-1
EOF
